17	4
23	24	21	24	
0	0	0	0	0	3	2	3	4	
5	9	4	7	4	1	17	
3	3	6	7	2	3	10	13	17	
6	7	1	8	10	3	5	9	17	
4	6	2	7	1	3	6	7	17	
175	9	6	3	5	2	8	16	
50	8	9	5	8	2	11	17	
75	4	3	6	2	1	14	
200	10	8	2	9	3	12	17	17	
50	4	8	9	10	2	15	16	
100	9	4	1	5	1	17	
100	5	10	9	8	1	17	
3	3	4	2	9	1	17	
3	7	1	8	1	2	17	17	
7	3	9	2	7	1	17	
4	6	3	3	2	2	17	17	
0	0	0	0	0	0	
